projet_m2_wvcp/projet_m2_wvcp/original_wvcp_dzn/p27.clq.dzn
cliques=[{34,25,21,16,12,0},{35,31,26,6,1},{36,28,17,8,2},{42,37,14,3},{38,33,29,19,4},{39,30,20,11,5},{35,31,26,6,1},{40,27,22,7},{36,28,17,8,2},{41,23,18,13,9},{43,32,24,15,10},{39,30,20,11,5},{34,25,21,16,12,0},{41,23,18,13,9},{42,37,14,3},{43,32,24,15,10},{34,25,21,16,12,0},{36,28,17,8,2},{41,23,18,13,9},{38,33,29,19,4},{39,30,20,11,5},{34,25,21,16,12,0},{40,27,22,7},{41,23,18,13,9},{43,32,24,15,10},{29,28,27,26,25},{29,28,27,26,25},{29,28,27,26,25},{29,28,27,26,25},{29,28,27,26,25},{33,32,31,30},{33,32,31,30},{43,32,24,15,10},{38,33,29,19,4},{38,37,36,35,34},{38,37,36,35,34},{38,37,36,35,34},{38,37,36,35,34},{38,37,36,35,34},{43,42,41,40,39},{43,42,41,40,39},{43,42,41,40,39},{43,42,41,40,39},{43,42,41,40,39}];
nr_cliques=44;
