projet_m2_wvcp/projet_m2_wvcp/original_wvcp_dzn/p27.dzn
name="p27";
nr_vertices=44;
nr_edges=174;
neighborhoods=[{1,2,3,4,12,16,21,25,34},{0,2,3,4,6,26,31,35},{0,1,3,4,8,17,28,36},{0,1,2,4,14,37,42},{0,1,2,3,19,29,33,38},{6,7,8,9,10,11,20,30,39},{1,5,7,8,9,10,26,31,35},{5,6,8,9,10,22,27,40},{2,5,6,7,9,10,17,28,36},{5,6,7,8,10,13,18,23,41},{5,6,7,8,9,15,24,32,43},{5,12,13,14,15,20,30,39},{0,11,13,14,15,16,21,25,34},{9,11,12,14,15,18,23,41},{3,11,12,13,15,37,42},{10,11,12,13,14,24,32,43},{0,12,17,18,19,21,25,34},{2,8,16,18,19,28,36},{9,13,16,17,19,23,41},{4,16,17,18,29,33,38},{5,11,21,22,23,24,30,39},{0,12,16,20,22,23,24,25,34},{7,20,21,23,24,27,40},{9,13,18,20,21,22,24,41},{10,15,20,21,22,23,32,43},{0,12,16,21,26,27,28,29,34},{1,6,25,27,28,29,31,35},{7,22,25,26,28,29,40},{2,8,17,25,26,27,29,36},{4,19,25,26,27,28,33,38},{5,11,20,31,32,33,39},{1,6,26,30,32,33,35},{10,15,24,30,31,33,43},{4,19,29,30,31,32,38},{0,12,16,21,25,35,36,37,38},{1,6,26,31,34,36,37,38},{2,8,17,28,34,35,37,38},{3,14,34,35,36,38,42},{4,19,29,33,34,35,36,37},{5,11,20,30,40,41,42,43},{7,22,27,39,41,42,43},{9,13,18,23,39,40,42,43},{3,14,37,39,40,41,43},{10,15,24,32,39,40,41,42}];
weights=[1,2,3,4,5,6,7,8,9,10,11,12,13,14,15,16,17,18,19,20,21,22,23,24,25,26,27,28,29,30,31,32,33,34,35,36,37,38,39,40,41,42,43,44];
